db/data/83151061530089322616318308922675020983.z3.out
-------------------
2500.139775809
